HUN,8,6,815
3,28,4,29,5,28,1,25,0,22,2,6
1,20,5,25,2,13,3,27,0,12,4,26
3,13,4,4,5,7,0,27,2,14,1,14
0,2,2,27,1,19,5,26,3,30,4,9
4,27,3,17,0,28,2,1,5,20,1,23
3,8,4,17,0,1,2,6,5,22,1,28
4,18,1,20,3,21,0,19,2,27,5,13
0,18,3,24,5,12,4,1,2,20,1,3
